\ Model MasterProblem
\ LP format - for model browsing. Use MPS format to capture full model detail.
Maximize
  - 200 y - 200 y - 200 y - 200 y - 200 y - 200 y - 200 y - 200 y - 200 y
   - 200 y + 0 theta[0] - 92 theta[0] - 256 theta[0] - 180 theta[0]
   - 275 theta[0] - 188 theta[0] - 256 theta[0] - 283 theta[0]
   - 277 theta[0] - 164 theta[0] - 220 theta[0] - 191 theta[0]
   - 259 theta[0] - 201 theta[0] - 291 theta[0] - 240 theta[0]
   - 277 theta[0] - 281 theta[0] - 285 theta[0] - 259 theta[0]
   - 194 theta[0] - 219 theta[0] - 256 theta[0] - 222 theta[0]
   - 279 theta[0] - 297 theta[0] - 274 theta[0] - 256 theta[0]
   - 180 theta[0] - 275 theta[0] - 283 theta[0] - 285 theta[0]
   - 316 theta[0] + 0 theta[0] - 188 theta[0] - 277 theta[0] - 164 theta[0]
   - 220 theta[0] - 240 theta[0] - 277 theta[0] - 281 theta[0]
   - 291 theta[0] - 259 theta[0] - 194 theta[0] - 219 theta[0]
   - 256 theta[0] - 279 theta[0] - 297 theta[0] - 274 theta[0]
   - 256 theta[0] - 285 theta[0] - 180 theta[0] - 275 theta[0]
   - 283 theta[0] - 316 theta[0] + 0 theta[0] - 188 theta[0] - 277 theta[0]
   - 164 theta[0] - 220 theta[0] - 240 theta[0] - 277 theta[0]
   - 281 theta[0] - 291 theta[0] - 259 theta[0] - 194 theta[0]
   - 219 theta[0] - 256 theta[0] - 279 theta[0] - 297 theta[0]
   - 274 theta[0] - 256 theta[0] - 285 theta[0] - 180 theta[0]
   - 275 theta[0] - 283 theta[0] - 316 theta[0] + 0 theta[0] - 103 theta[0]
   - 256 theta[0] - 189 theta[0] - 275 theta[0] - 188 theta[0]
   - 262 theta[0] - 292 theta[0] - 277 theta[0] - 164 theta[0]
   - 220 theta[0] - 202 theta[0] - 212 theta[0] - 240 theta[0]
   - 291 theta[0] - 277 theta[0] - 281 theta[0] - 259 theta[0]
   - 194 theta[0] - 219 theta[0] - 256 theta[0] - 233 theta[0]
   - 279 theta[0] - 274 theta[0] - 297 theta[0] - 256 theta[0]
   - 180 theta[0] - 275 theta[0] - 283 theta[0] - 285 theta[0]
   - 316 theta[0] + 0 theta[0] - 188 theta[0] - 277 theta[0] - 164 theta[0]
   - 220 theta[0] - 240 theta[0] - 277 theta[0] - 281 theta[0]
   - 291 theta[0] - 259 theta[0] - 194 theta[0] - 219 theta[0]
   - 256 theta[0] - 279 theta[0] - 297 theta[0] - 274 theta[0]
   - 256 theta[0] - 285 theta[0] - 180 theta[0] - 275 theta[0]
   - 283 theta[0] - 316 theta[0] + 0 theta[0] - 99 theta[0] - 256 theta[0]
   - 185 theta[0] - 275 theta[0] - 188 theta[0] - 258 theta[0]
   - 288 theta[0] - 277 theta[0] - 164 theta[0] - 220 theta[0]
   - 198 theta[0] - 259 theta[0] - 208 theta[0] - 291 theta[0]
   - 240 theta[0] - 277 theta[0] - 281 theta[0] - 259 theta[0]
   - 194 theta[0] - 219 theta[0] - 256 theta[0] - 229 theta[0]
   - 279 theta[0] - 297 theta[0] - 274 theta[0] - 256 theta[0]
   - 180 theta[0] - 275 theta[0] - 283 theta[0] - 285 theta[0]
   - 316 theta[0] + 0 theta[0] - 188 theta[0] - 277 theta[0] - 164 theta[0]
   - 220 theta[0] - 240 theta[0] - 277 theta[0] - 281 theta[0]
   - 291 theta[0] - 259 theta[0] - 194 theta[0] - 219 theta[0]
   - 256 theta[0] - 279 theta[0] - 297 theta[0] - 274 theta[0]
   - 256 theta[0] - 285 theta[0] - 180 theta[0] - 275 theta[0]
   - 283 theta[0] - 316 theta[0] + 0 theta[0] - 188 theta[0] - 277 theta[0]
   - 164 theta[0] - 220 theta[0] - 240 theta[0] - 277 theta[0]
   - 281 theta[0] - 291 theta[0] - 259 theta[0] - 194 theta[0]
   - 219 theta[0] - 256 theta[0] - 279 theta[0] - 297 theta[0]
   - 274 theta[0] - 256 theta[0] - 285 theta[0] - 180 theta[0]
   - 275 theta[0] - 283 theta[0] - 316 theta[0] + 0 theta[0] - 97 theta[0]
   - 256 theta[0] - 183 theta[0] - 275 theta[0] - 188 theta[0]
   - 256 theta[0] - 286 theta[0] - 277 theta[0] - 164 theta[0]
   - 220 theta[0] - 196 theta[0] - 259 theta[0] - 206 theta[0]
   - 291 theta[0] - 240 theta[0] - 277 theta[0] - 281 theta[0]
   - 299 theta[0] - 259 theta[0] - 194 theta[0] - 219 theta[0]
   - 256 theta[0] - 227 theta[0] - 279 theta[0] - 297 theta[0]
   - 274 theta[0] - 256 theta[0] - 180 theta[0] - 275 theta[0]
   - 283 theta[0] - 285 theta[0] - 316 theta[0] + 0 theta[0] - 105 theta[0]
   - 256 theta[0] - 191 theta[0] - 275 theta[0] - 188 theta[0]
   - 264 theta[0] - 294 theta[0] - 277 theta[0] - 164 theta[0]
   - 220 theta[0] - 204 theta[0] - 214 theta[0] - 240 theta[0]
   - 291 theta[0] - 277 theta[0] - 281 theta[0] - 259 theta[0]
   - 259 theta[0] - 194 theta[0] - 219 theta[0] - 256 theta[0]
   - 235 theta[0] - 279 theta[0] - 297 theta[0] - 274 theta[0]
   - 256 theta[0] - 180 theta[0] - 275 theta[0] - 283 theta[0]
   - 285 theta[0] - 316 theta[0] + 1000 Constant
Subject To
 route_selection: x[0] + x[1] + x[2] + x[3] + x[4] + x[5] + x[6] + x[7]
   + x[8] + x[9] + x[10] + x[11] + x[12] + x[13] + x[14] + x[15] + x[16]
   + x[17] + x[18] + x[19] + x[20] + x[21] + x[22] + x[23] + x[24] + x[25]
   + x[26] + x[27] + x[28] + x[29] + x[30] + x[31] + x[32] = 1
 route_selection: x[0] + x[1] + x[2] + x[3] + x[4] + x[5] + x[6] + x[7]
   + x[8] + x[9] + x[10] + x[11] + x[12] + x[13] + x[14] + x[15] + x[16]
   + x[17] + x[18] + x[19] + x[20] + x[21] = 1
 route_selection: x[0] + x[1] + x[2] + x[3] + x[4] + x[5] + x[6] + x[7]
   + x[8] + x[9] + x[10] + x[11] + x[12] + x[13] + x[14] + x[15] + x[16]
   + x[17] + x[18] + x[19] + x[20] + x[21] = 1
 route_selection: x[0] + x[1] + x[2] + x[3] + x[4] + x[5] + x[6] + x[7]
   + x[8] + x[9] + x[10] + x[11] + x[12] + x[13] + x[14] + x[15] + x[16]
   + x[17] + x[18] + x[19] + x[20] + x[21] + x[22] + x[23] + x[24] + x[25]
   + x[26] + x[27] + x[28] + x[29] + x[30] = 1
 route_selection: x[0] + x[1] + x[2] + x[3] + x[4] + x[5] + x[6] + x[7]
   + x[8] + x[9] + x[10] + x[11] + x[12] + x[13] + x[14] + x[15] + x[16]
   + x[17] + x[18] + x[19] + x[20] + x[21] = 1
 route_selection: x[0] + x[1] + x[2] + x[3] + x[4] + x[5] + x[6] + x[7]
   + x[8] + x[9] + x[10] + x[11] + x[12] + x[13] + x[14] + x[15] + x[16]
   + x[17] + x[18] + x[19] + x[20] + x[21] + x[22] + x[23] + x[24] + x[25]
   + x[26] + x[27] + x[28] + x[29] + x[30] + x[31] = 1
 route_selection: x[0] + x[1] + x[2] + x[3] + x[4] + x[5] + x[6] + x[7]
   + x[8] + x[9] + x[10] + x[11] + x[12] + x[13] + x[14] + x[15] + x[16]
   + x[17] + x[18] + x[19] + x[20] + x[21] = 1
 route_selection: x[0] + x[1] + x[2] + x[3] + x[4] + x[5] + x[6] + x[7]
   + x[8] + x[9] + x[10] + x[11] + x[12] + x[13] + x[14] + x[15] + x[16]
   + x[17] + x[18] + x[19] + x[20] + x[21] = 1
 route_selection: x[0] + x[1] + x[2] + x[3] + x[4] + x[5] + x[6] + x[7]
   + x[8] + x[9] + x[10] + x[11] + x[12] + x[13] + x[14] + x[15] + x[16]
   + x[17] + x[18] + x[19] + x[20] + x[21] + x[22] + x[23] + x[24] + x[25]
   + x[26] + x[27] + x[28] + x[29] + x[30] + x[31] + x[32] = 1
 route_selection: x[0] + x[1] + x[2] + x[3] + x[4] + x[5] + x[6] + x[7]
   + x[8] + x[9] + x[10] + x[11] + x[12] + x[13] + x[14] + x[15] + x[16]
   + x[17] + x[18] + x[19] + x[20] + x[21] + x[22] + x[23] + x[24] + x[25]
   + x[26] + x[27] + x[28] + x[29] + x[30] + x[31] = 1
 links_between_xandthera: - x[1] + theta[0] = 0
 links_between_xandthera: - x[2] + theta[0] = 0
 links_between_xandthera: - x[3] + theta[0] = 0
 links_between_xandthera: - x[4] + theta[0] = 0
 links_between_xandthera: - x[5] + theta[0] = 0
 links_between_xandthera: - x[6] + theta[0] = 0
 links_between_xandthera: - x[7] + theta[0] = 0
 links_between_xandthera: - x[8] + theta[0] = 0
 links_between_xandthera: - x[9] + theta[0] = 0
 links_between_xandthera: - x[10] + theta[0] = 0
 links_between_xandthera: - x[11] + theta[0] = 0
 links_between_xandthera: - x[12] + theta[0] = 0
 links_between_xandthera: - x[13] + theta[0] = 0
 links_between_xandthera: - x[14] + theta[0] = 0
 links_between_xandthera: - x[15] + theta[0] = 0
 links_between_xandthera: - x[16] + theta[0] = 0
 links_between_xandthera: - x[17] + theta[0] = 0
 links_between_xandthera: - x[18] + theta[0] = 0
 links_between_xandthera: - x[19] + theta[0] = 0
 links_between_xandthera: - x[20] + theta[0] = 0
 links_between_xandthera: - x[21] + theta[0] = 0
 links_between_xandthera: - x[22] + theta[0] = 0
 links_between_xandthera: - x[23] + theta[0] = 0
 links_between_xandthera: - x[24] + theta[0] = 0
 links_between_xandthera: - x[25] + theta[0] = 0
 links_between_xandthera: - x[26] + theta[0] = 0
 links_between_xandthera: - x[27] + theta[0] = 0
 links_between_xandthera: - x[28] + theta[0] = 0
 links_between_xandthera: - x[29] + theta[0] = 0
 links_between_xandthera: - x[30] + theta[0] = 0
 links_between_xandthera: - x[31] + theta[0] = 0
 links_between_xandthera: - x[32] + theta[0] = 0
 links_between_xandthera: - x[1] + theta[0] = 0
 links_between_xandthera: - x[2] + theta[0] = 0
 links_between_xandthera: - x[3] + theta[0] = 0
 links_between_xandthera: - x[4] + theta[0] = 0
 links_between_xandthera: - x[5] + theta[0] = 0
 links_between_xandthera: - x[6] + theta[0] = 0
 links_between_xandthera: - x[7] + theta[0] = 0
 links_between_xandthera: - x[8] + theta[0] = 0
 links_between_xandthera: - x[9] + theta[0] = 0
 links_between_xandthera: - x[10] + theta[0] = 0
 links_between_xandthera: - x[11] + theta[0] = 0
 links_between_xandthera: - x[12] + theta[0] = 0
 links_between_xandthera: - x[13] + theta[0] = 0
 links_between_xandthera: - x[14] + theta[0] = 0
 links_between_xandthera: - x[15] + theta[0] = 0
 links_between_xandthera: - x[16] + theta[0] = 0
 links_between_xandthera: - x[17] + theta[0] = 0
 links_between_xandthera: - x[18] + theta[0] = 0
 links_between_xandthera: - x[19] + theta[0] = 0
 links_between_xandthera: - x[20] + theta[0] = 0
 links_between_xandthera: - x[21] + theta[0] = 0
 links_between_xandthera: - x[1] + theta[0] = 0
 links_between_xandthera: - x[2] + theta[0] = 0
 links_between_xandthera: - x[3] + theta[0] = 0
 links_between_xandthera: - x[4] + theta[0] = 0
 links_between_xandthera: - x[5] + theta[0] = 0
 links_between_xandthera: - x[6] + theta[0] = 0
 links_between_xandthera: - x[7] + theta[0] = 0
 links_between_xandthera: - x[8] + theta[0] = 0
 links_between_xandthera: - x[9] + theta[0] = 0
 links_between_xandthera: - x[10] + theta[0] = 0
 links_between_xandthera: - x[11] + theta[0] = 0
 links_between_xandthera: - x[12] + theta[0] = 0
 links_between_xandthera: - x[13] + theta[0] = 0
 links_between_xandthera: - x[14] + theta[0] = 0
 links_between_xandthera: - x[15] + theta[0] = 0
 links_between_xandthera: - x[16] + theta[0] = 0
 links_between_xandthera: - x[17] + theta[0] = 0
 links_between_xandthera: - x[18] + theta[0] = 0
 links_between_xandthera: - x[19] + theta[0] = 0
 links_between_xandthera: - x[20] + theta[0] = 0
 links_between_xandthera: - x[21] + theta[0] = 0
 links_between_xandthera: - x[1] + theta[0] = 0
 links_between_xandthera: - x[2] + theta[0] = 0
 links_between_xandthera: - x[3] + theta[0] = 0
 links_between_xandthera: - x[4] + theta[0] = 0
 links_between_xandthera: - x[5] + theta[0] = 0
 links_between_xandthera: - x[6] + theta[0] = 0
 links_between_xandthera: - x[7] + theta[0] = 0
 links_between_xandthera: - x[8] + theta[0] = 0
 links_between_xandthera: - x[9] + theta[0] = 0
 links_between_xandthera: - x[10] + theta[0] = 0
 links_between_xandthera: - x[11] + theta[0] = 0
 links_between_xandthera: - x[12] + theta[0] = 0
 links_between_xandthera: - x[13] + theta[0] = 0
 links_between_xandthera: - x[14] + theta[0] = 0
 links_between_xandthera: - x[15] + theta[0] = 0
 links_between_xandthera: - x[16] + theta[0] = 0
 links_between_xandthera: - x[17] + theta[0] = 0
 links_between_xandthera: - x[18] + theta[0] = 0
 links_between_xandthera: - x[19] + theta[0] = 0
 links_between_xandthera: - x[20] + theta[0] = 0
 links_between_xandthera: - x[21] + theta[0] = 0
 links_between_xandthera: - x[22] + theta[0] = 0
 links_between_xandthera: - x[23] + theta[0] = 0
 links_between_xandthera: - x[24] + theta[0] = 0
 links_between_xandthera: - x[25] + theta[0] = 0
 links_between_xandthera: - x[26] + theta[0] = 0
 links_between_xandthera: - x[27] + theta[0] = 0
 links_between_xandthera: - x[28] + theta[0] = 0
 links_between_xandthera: - x[29] + theta[0] = 0
 links_between_xandthera: - x[30] + theta[0] = 0
 links_between_xandthera: - x[1] + theta[0] = 0
 links_between_xandthera: - x[2] + theta[0] = 0
 links_between_xandthera: - x[3] + theta[0] = 0
 links_between_xandthera: - x[4] + theta[0] = 0
 links_between_xandthera: - x[5] + theta[0] = 0
 links_between_xandthera: - x[6] + theta[0] = 0
 links_between_xandthera: - x[7] + theta[0] = 0
 links_between_xandthera: - x[8] + theta[0] = 0
 links_between_xandthera: - x[9] + theta[0] = 0
 links_between_xandthera: - x[10] + theta[0] = 0
 links_between_xandthera: - x[11] + theta[0] = 0
 links_between_xandthera: - x[12] + theta[0] = 0
 links_between_xandthera: - x[13] + theta[0] = 0
 links_between_xandthera: - x[14] + theta[0] = 0
 links_between_xandthera: - x[15] + theta[0] = 0
 links_between_xandthera: - x[16] + theta[0] = 0
 links_between_xandthera: - x[17] + theta[0] = 0
 links_between_xandthera: - x[18] + theta[0] = 0
 links_between_xandthera: - x[19] + theta[0] = 0
 links_between_xandthera: - x[20] + theta[0] = 0
 links_between_xandthera: - x[21] + theta[0] = 0
 links_between_xandthera: - x[1] + theta[0] = 0
 links_between_xandthera: - x[2] + theta[0] = 0
 links_between_xandthera: - x[3] + theta[0] = 0
 links_between_xandthera: - x[4] + theta[0] = 0
 links_between_xandthera: - x[5] + theta[0] = 0
 links_between_xandthera: - x[6] + theta[0] = 0
 links_between_xandthera: - x[7] + theta[0] = 0
 links_between_xandthera: - x[8] + theta[0] = 0
 links_between_xandthera: - x[9] + theta[0] = 0
 links_between_xandthera: - x[10] + theta[0] = 0
 links_between_xandthera: - x[11] + theta[0] = 0
 links_between_xandthera: - x[12] + theta[0] = 0
 links_between_xandthera: - x[13] + theta[0] = 0
 links_between_xandthera: - x[14] + theta[0] = 0
 links_between_xandthera: - x[15] + theta[0] = 0
 links_between_xandthera: - x[16] + theta[0] = 0
 links_between_xandthera: - x[17] + theta[0] = 0
 links_between_xandthera: - x[18] + theta[0] = 0
 links_between_xandthera: - x[19] + theta[0] = 0
 links_between_xandthera: - x[20] + theta[0] = 0
 links_between_xandthera: - x[21] + theta[0] = 0
 links_between_xandthera: - x[22] + theta[0] = 0
 links_between_xandthera: - x[23] + theta[0] = 0
 links_between_xandthera: - x[24] + theta[0] = 0
 links_between_xandthera: - x[25] + theta[0] = 0
 links_between_xandthera: - x[26] + theta[0] = 0
 links_between_xandthera: - x[27] + theta[0] = 0
 links_between_xandthera: - x[28] + theta[0] = 0
 links_between_xandthera: - x[29] + theta[0] = 0
 links_between_xandthera: - x[30] + theta[0] = 0
 links_between_xandthera: - x[31] + theta[0] = 0
 links_between_xandthera: - x[1] + theta[0] = 0
 links_between_xandthera: - x[2] + theta[0] = 0
 links_between_xandthera: - x[3] + theta[0] = 0
 links_between_xandthera: - x[4] + theta[0] = 0
 links_between_xandthera: - x[5] + theta[0] = 0
 links_between_xandthera: - x[6] + theta[0] = 0
 links_between_xandthera: - x[7] + theta[0] = 0
 links_between_xandthera: - x[8] + theta[0] = 0
 links_between_xandthera: - x[9] + theta[0] = 0
 links_between_xandthera: - x[10] + theta[0] = 0
 links_between_xandthera: - x[11] + theta[0] = 0
 links_between_xandthera: - x[12] + theta[0] = 0
 links_between_xandthera: - x[13] + theta[0] = 0
 links_between_xandthera: - x[14] + theta[0] = 0
 links_between_xandthera: - x[15] + theta[0] = 0
 links_between_xandthera: - x[16] + theta[0] = 0
 links_between_xandthera: - x[17] + theta[0] = 0
 links_between_xandthera: - x[18] + theta[0] = 0
 links_between_xandthera: - x[19] + theta[0] = 0
 links_between_xandthera: - x[20] + theta[0] = 0
 links_between_xandthera: - x[21] + theta[0] = 0
 links_between_xandthera: - x[1] + theta[0] = 0
 links_between_xandthera: - x[2] + theta[0] = 0
 links_between_xandthera: - x[3] + theta[0] = 0
 links_between_xandthera: - x[4] + theta[0] = 0
 links_between_xandthera: - x[5] + theta[0] = 0
 links_between_xandthera: - x[6] + theta[0] = 0
 links_between_xandthera: - x[7] + theta[0] = 0
 links_between_xandthera: - x[8] + theta[0] = 0
 links_between_xandthera: - x[9] + theta[0] = 0
 links_between_xandthera: - x[10] + theta[0] = 0
 links_between_xandthera: - x[11] + theta[0] = 0
 links_between_xandthera: - x[12] + theta[0] = 0
 links_between_xandthera: - x[13] + theta[0] = 0
 links_between_xandthera: - x[14] + theta[0] = 0
 links_between_xandthera: - x[15] + theta[0] = 0
 links_between_xandthera: - x[16] + theta[0] = 0
 links_between_xandthera: - x[17] + theta[0] = 0
 links_between_xandthera: - x[18] + theta[0] = 0
 links_between_xandthera: - x[19] + theta[0] = 0
 links_between_xandthera: - x[20] + theta[0] = 0
 links_between_xandthera: - x[21] + theta[0] = 0
 links_between_xandthera: - x[1] + theta[0] = 0
 links_between_xandthera: - x[2] + theta[0] = 0
 links_between_xandthera: - x[3] + theta[0] = 0
 links_between_xandthera: - x[4] + theta[0] = 0
 links_between_xandthera: - x[5] + theta[0] = 0
 links_between_xandthera: - x[6] + theta[0] = 0
 links_between_xandthera: - x[7] + theta[0] = 0
 links_between_xandthera: - x[8] + theta[0] = 0
 links_between_xandthera: - x[9] + theta[0] = 0
 links_between_xandthera: - x[10] + theta[0] = 0
 links_between_xandthera: - x[11] + theta[0] = 0
 links_between_xandthera: - x[12] + theta[0] = 0
 links_between_xandthera: - x[13] + theta[0] = 0
 links_between_xandthera: - x[14] + theta[0] = 0
 links_between_xandthera: - x[15] + theta[0] = 0
 links_between_xandthera: - x[16] + theta[0] = 0
 links_between_xandthera: - x[17] + theta[0] = 0
 links_between_xandthera: - x[18] + theta[0] = 0
 links_between_xandthera: - x[19] + theta[0] = 0
 links_between_xandthera: - x[20] + theta[0] = 0
 links_between_xandthera: - x[21] + theta[0] = 0
 links_between_xandthera: - x[22] + theta[0] = 0
 links_between_xandthera: - x[23] + theta[0] = 0
 links_between_xandthera: - x[24] + theta[0] = 0
 links_between_xandthera: - x[25] + theta[0] = 0
 links_between_xandthera: - x[26] + theta[0] = 0
 links_between_xandthera: - x[27] + theta[0] = 0
 links_between_xandthera: - x[28] + theta[0] = 0
 links_between_xandthera: - x[29] + theta[0] = 0
 links_between_xandthera: - x[30] + theta[0] = 0
 links_between_xandthera: - x[31] + theta[0] = 0
 links_between_xandthera: - x[32] + theta[0] = 0
 links_between_xandthera: - x[1] + theta[0] = 0
 links_between_xandthera: - x[2] + theta[0] = 0
 links_between_xandthera: - x[3] + theta[0] = 0
 links_between_xandthera: - x[4] + theta[0] = 0
 links_between_xandthera: - x[5] + theta[0] = 0
 links_between_xandthera: - x[6] + theta[0] = 0
 links_between_xandthera: - x[7] + theta[0] = 0
 links_between_xandthera: - x[8] + theta[0] = 0
 links_between_xandthera: - x[9] + theta[0] = 0
 links_between_xandthera: - x[10] + theta[0] = 0
 links_between_xandthera: - x[11] + theta[0] = 0
 links_between_xandthera: - x[12] + theta[0] = 0
 links_between_xandthera: - x[13] + theta[0] = 0
 links_between_xandthera: - x[14] + theta[0] = 0
 links_between_xandthera: - x[15] + theta[0] = 0
 links_between_xandthera: - x[16] + theta[0] = 0
 links_between_xandthera: - x[17] + theta[0] = 0
 links_between_xandthera: - x[18] + theta[0] = 0
 links_between_xandthera: - x[19] + theta[0] = 0
 links_between_xandthera: - x[20] + theta[0] = 0
 links_between_xandthera: - x[21] + theta[0] = 0
 links_between_xandthera: - x[22] + theta[0] = 0
 links_between_xandthera: - x[23] + theta[0] = 0
 links_between_xandthera: - x[24] + theta[0] = 0
 links_between_xandthera: - x[25] + theta[0] = 0
 links_between_xandthera: - x[26] + theta[0] = 0
 links_between_xandthera: - x[27] + theta[0] = 0
 links_between_xandthera: - x[28] + theta[0] = 0
 links_between_xandthera: - x[29] + theta[0] = 0
 links_between_xandthera: - x[30] + theta[0] = 0
 links_between_xandthera: - x[31] + theta[0] = 0
 demand_const: 26 y + 26 theta[0] + 26 theta[0] + 26 theta[0] + 26 theta[0]
   + 26 theta[0] + 26 theta[0] + 26 theta[0] + 26 theta[0] + 26 theta[0]
   + 26 theta[0] + 26 theta[0] + 26 theta[0] + 26 theta[0] + 26 theta[0]
   + 26 theta[0] >= 26
 demand_const: 21 y + 21 theta[0] + 21 theta[0] + 21 theta[0] + 21 theta[0]
   + 21 theta[0] + 21 theta[0] + 21 theta[0] + 21 theta[0] + 21 theta[0]
   + 21 theta[0] + 21 theta[0] + 21 theta[0] + 21 theta[0] + 21 theta[0]
   + 21 theta[0] + 21 theta[0] + 21 theta[0] + 21 theta[0] + 21 theta[0]
   + 21 theta[0] + 21 theta[0] + 21 theta[0] + 21 theta[0] + 21 theta[0]
   + 21 theta[0] + 21 theta[0] + 21 theta[0] + 21 theta[0] + 21 theta[0]
   + 21 theta[0] + 21 theta[0] + 21 theta[0] + 21 theta[0] + 21 theta[0]
   + 21 theta[0] + 21 theta[0] + 21 theta[0] + 21 theta[0] + 21 theta[0]
   + 21 theta[0] + 21 theta[0] + 21 theta[0] + 21 theta[0] + 21 theta[0]
   + 21 theta[0] + 21 theta[0] >= 21
 demand_const: 16 y + 16 theta[0] + 16 theta[0] + 16 theta[0] + 16 theta[0]
   + 16 theta[0] + 16 theta[0] + 16 theta[0] + 16 theta[0] + 16 theta[0]
   + 16 theta[0] + 16 theta[0] + 16 theta[0] + 16 theta[0] + 16 theta[0]
   + 16 theta[0] + 16 theta[0] + 16 theta[0] + 16 theta[0] + 16 theta[0]
   + 16 theta[0] + 16 theta[0] + 16 theta[0] + 16 theta[0] + 16 theta[0]
   + 16 theta[0] + 16 theta[0] + 16 theta[0] + 16 theta[0] + 16 theta[0]
   + 16 theta[0] + 16 theta[0] + 16 theta[0] + 16 theta[0] + 16 theta[0]
   + 16 theta[0] + 16 theta[0] + 16 theta[0] + 16 theta[0] + 16 theta[0]
   + 16 theta[0] + 16 theta[0] + 16 theta[0] + 16 theta[0] + 16 theta[0]
   + 16 theta[0] + 16 theta[0] + 16 theta[0] + 16 theta[0] + 16 theta[0]
   + 16 theta[0] + 16 theta[0] + 16 theta[0] + 16 theta[0] + 16 theta[0]
   + 16 theta[0] + 16 theta[0] + 16 theta[0] + 16 theta[0] + 16 theta[0]
   + 16 theta[0] + 16 theta[0] + 16 theta[0] + 16 theta[0] + 16 theta[0]
   + 16 theta[0] + 16 theta[0] + 16 theta[0] + 16 theta[0] + 16 theta[0]
   + 16 theta[0] + 16 theta[0] + 16 theta[0] + 16 theta[0] + 16 theta[0]
   + 16 theta[0] + 16 theta[0] + 16 theta[0] + 16 theta[0] + 16 theta[0]
   + 16 theta[0] + 16 theta[0] + 16 theta[0] + 16 theta[0] + 16 theta[0]
   + 16 theta[0] + 16 theta[0] + 16 theta[0] + 16 theta[0] + 16 theta[0]
   + 16 theta[0] + 16 theta[0] >= 16
 demand_const: 12 y + 12 theta[0] + 12 theta[0] + 12 theta[0] + 12 theta[0]
   + 12 theta[0] + 12 theta[0] + 12 theta[0] + 12 theta[0] + 12 theta[0]
   + 12 theta[0] + 12 theta[0] + 12 theta[0] + 12 theta[0] + 12 theta[0]
   + 12 theta[0] + 12 theta[0] + 12 theta[0] + 12 theta[0] + 12 theta[0]
   + 12 theta[0] + 12 theta[0] + 12 theta[0] + 12 theta[0] + 12 theta[0]
   + 12 theta[0] + 12 theta[0] + 12 theta[0] + 12 theta[0] + 12 theta[0]
   + 12 theta[0] + 12 theta[0] + 12 theta[0] + 12 theta[0] + 12 theta[0]
   + 12 theta[0] + 12 theta[0] + 12 theta[0] + 12 theta[0] + 12 theta[0]
   + 12 theta[0] + 12 theta[0] + 12 theta[0] + 12 theta[0] + 12 theta[0]
   + 12 theta[0] + 12 theta[0] + 12 theta[0] + 12 theta[0] + 12 theta[0]
   + 12 theta[0] + 12 theta[0] + 12 theta[0] + 12 theta[0] + 12 theta[0]
   + 12 theta[0] + 12 theta[0] + 12 theta[0] + 12 theta[0] + 12 theta[0]
   + 12 theta[0] + 12 theta[0] + 12 theta[0] + 12 theta[0] + 12 theta[0]
   + 12 theta[0] + 12 theta[0] + 12 theta[0] + 12 theta[0] + 12 theta[0]
   + 12 theta[0] + 12 theta[0] + 12 theta[0] + 12 theta[0] + 12 theta[0]
   + 12 theta[0] + 12 theta[0] + 12 theta[0] + 12 theta[0] + 12 theta[0]
   + 12 theta[0] + 12 theta[0] >= 12
 demand_const: 7 y + 7 theta[0] + 7 theta[0] + 7 theta[0] + 7 theta[0]
   + 7 theta[0] + 7 theta[0] + 7 theta[0] + 7 theta[0] + 7 theta[0]
   + 7 theta[0] >= 7
 demand_const: 7 y + 7 theta[0] + 7 theta[0] + 7 theta[0] + 7 theta[0]
   + 7 theta[0] + 7 theta[0] + 7 theta[0] + 7 theta[0] + 7 theta[0]
   + 7 theta[0] + 7 theta[0] + 7 theta[0] + 7 theta[0] + 7 theta[0]
   + 7 theta[0] + 7 theta[0] + 7 theta[0] + 7 theta[0] + 7 theta[0]
   + 7 theta[0] + 7 theta[0] + 7 theta[0] + 7 theta[0] + 7 theta[0]
   + 7 theta[0] + 7 theta[0] + 7 theta[0] + 7 theta[0] + 7 theta[0]
   + 7 theta[0] + 7 theta[0] + 7 theta[0] + 7 theta[0] + 7 theta[0]
   + 7 theta[0] + 7 theta[0] + 7 theta[0] + 7 theta[0] + 7 theta[0]
   + 7 theta[0] + 7 theta[0] + 7 theta[0] + 7 theta[0] + 7 theta[0]
   + 7 theta[0] + 7 theta[0] + 7 theta[0] + 7 theta[0] + 7 theta[0]
   + 7 theta[0] + 7 theta[0] + 7 theta[0] + 7 theta[0] + 7 theta[0]
   + 7 theta[0] + 7 theta[0] + 7 theta[0] + 7 theta[0] + 7 theta[0]
   + 7 theta[0] >= 7
 demand_const: 17 y + 17 theta[0] + 17 theta[0] + 17 theta[0] + 17 theta[0]
   + 17 theta[0] + 17 theta[0] + 17 theta[0] + 17 theta[0] + 17 theta[0]
   + 17 theta[0] + 17 theta[0] + 17 theta[0] + 17 theta[0] + 17 theta[0]
   + 17 theta[0] + 17 theta[0] + 17 theta[0] + 17 theta[0] + 17 theta[0]
   + 17 theta[0] + 17 theta[0] + 17 theta[0] + 17 theta[0] + 17 theta[0]
   + 17 theta[0] >= 17
 demand_const: 17 y + 17 theta[0] + 17 theta[0] + 17 theta[0] + 17 theta[0]
   + 17 theta[0] + 17 theta[0] + 17 theta[0] + 17 theta[0] + 17 theta[0]
   + 17 theta[0] + 17 theta[0] + 17 theta[0] + 17 theta[0] + 17 theta[0]
   + 17 theta[0] + 17 theta[0] + 17 theta[0] + 17 theta[0] + 17 theta[0]
   + 17 theta[0] + 17 theta[0] + 17 theta[0] + 17 theta[0] + 17 theta[0]
   + 17 theta[0] + 17 theta[0] + 17 theta[0] + 17 theta[0] + 17 theta[0]
   + 17 theta[0] + 17 theta[0] + 17 theta[0] + 17 theta[0] + 17 theta[0]
   + 17 theta[0] + 17 theta[0] + 17 theta[0] + 17 theta[0] + 17 theta[0]
   + 17 theta[0] >= 17
 demand_const: 9 y + 9 theta[0] + 9 theta[0] + 9 theta[0] + 9 theta[0]
   + 9 theta[0] + 9 theta[0] + 9 theta[0] + 9 theta[0] + 9 theta[0]
   + 9 theta[0] + 9 theta[0] + 9 theta[0] + 9 theta[0] + 9 theta[0]
   + 9 theta[0] + 9 theta[0] + 9 theta[0] + 9 theta[0] + 9 theta[0]
   + 9 theta[0] + 9 theta[0] + 9 theta[0] + 9 theta[0] + 9 theta[0]
   + 9 theta[0] + 9 theta[0] + 9 theta[0] + 9 theta[0] + 9 theta[0]
   + 9 theta[0] + 9 theta[0] + 9 theta[0] + 9 theta[0] + 9 theta[0]
   + 9 theta[0] + 9 theta[0] + 9 theta[0] + 9 theta[0] + 9 theta[0]
   + 9 theta[0] + 9 theta[0] + 9 theta[0] + 9 theta[0] + 9 theta[0]
   + 9 theta[0] + 9 theta[0] + 9 theta[0] + 9 theta[0] + 9 theta[0]
   + 9 theta[0] + 9 theta[0] >= 9
 demand_const: 23 y + 23 theta[0] + 23 theta[0] + 23 theta[0] + 23 theta[0]
   + 23 theta[0] + 23 theta[0] + 23 theta[0] + 23 theta[0] + 23 theta[0]
   + 23 theta[0] + 23 theta[0] + 23 theta[0] + 23 theta[0] + 23 theta[0]
   + 23 theta[0] + 23 theta[0] + 23 theta[0] + 23 theta[0] + 23 theta[0]
   + 23 theta[0] + 23 theta[0] + 23 theta[0] + 23 theta[0] + 23 theta[0]
   + 23 theta[0] + 23 theta[0] + 23 theta[0] + 23 theta[0] + 23 theta[0]
   + 23 theta[0] + 23 theta[0] + 23 theta[0] + 23 theta[0] + 23 theta[0]
   + 23 theta[0] >= 23
Bounds
 theta[0] <= 1
 theta[0] <= 1
 theta[0] <= 1
 theta[0] <= 1
 theta[0] <= 1
 theta[0] <= 1
 theta[0] <= 1
 theta[0] <= 1
 theta[0] <= 1
 theta[0] <= 1
 theta[0] <= 1
 theta[0] <= 1
 theta[0] <= 1
 theta[0] <= 1
 theta[0] <= 1
 theta[0] <= 1
 theta[0] <= 1
 theta[0] <= 1
 theta[0] <= 1
 theta[0] <= 1
 theta[0] <= 1
 theta[0] <= 1
 theta[0] <= 1
 theta[0] <= 1
 theta[0] <= 1
 theta[0] <= 1
 theta[0] <= 1
 theta[0] <= 1
 theta[0] <= 1
 theta[0] <= 1
 theta[0] <= 1
 theta[0] <= 1
 theta[0] <= 1
 theta[0] <= 1
 theta[0] <= 1
 theta[0] <= 1
 theta[0] <= 1
 theta[0] <= 1
 theta[0] <= 1
 theta[0] <= 1
 theta[0] <= 1
 theta[0] <= 1
 theta[0] <= 1
 theta[0] <= 1
 theta[0] <= 1
 theta[0] <= 1
 theta[0] <= 1
 theta[0] <= 1
 theta[0] <= 1
 theta[0] <= 1
 theta[0] <= 1
 theta[0] <= 1
 theta[0] <= 1
 theta[0] <= 1
 theta[0] <= 1
 theta[0] <= 1
 theta[0] <= 1
 theta[0] <= 1
 theta[0] <= 1
 theta[0] <= 1
 theta[0] <= 1
 theta[0] <= 1
 theta[0] <= 1
 theta[0] <= 1
 theta[0] <= 1
 theta[0] <= 1
 theta[0] <= 1
 theta[0] <= 1
 theta[0] <= 1
 theta[0] <= 1
 theta[0] <= 1
 theta[0] <= 1
 theta[0] <= 1
 theta[0] <= 1
 theta[0] <= 1
 theta[0] <= 1
 theta[0] <= 1
 theta[0] <= 1
 theta[0] <= 1
 theta[0] <= 1
 theta[0] <= 1
 theta[0] <= 1
 theta[0] <= 1
 theta[0] <= 1
 theta[0] <= 1
 theta[0] <= 1
 theta[0] <= 1
 theta[0] <= 1
 theta[0] <= 1
 theta[0] <= 1
 theta[0] <= 1
 theta[0] <= 1
 theta[0] <= 1
 theta[0] <= 1
 theta[0] <= 1
 theta[0] <= 1
 theta[0] <= 1
 theta[0] <= 1
 theta[0] <= 1
 theta[0] <= 1
 theta[0] <= 1
 theta[0] <= 1
 theta[0] <= 1
 theta[0] <= 1
 theta[0] <= 1
 theta[0] <= 1
 theta[0] <= 1
 theta[0] <= 1
 theta[0] <= 1
 theta[0] <= 1
 theta[0] <= 1
 theta[0] <= 1
 theta[0] <= 1
 theta[0] <= 1
 theta[0] <= 1
 theta[0] <= 1
 theta[0] <= 1
 theta[0] <= 1
 theta[0] <= 1
 theta[0] <= 1
 theta[0] <= 1
 theta[0] <= 1
 theta[0] <= 1
 theta[0] <= 1
 theta[0] <= 1
 theta[0] <= 1
 theta[0] <= 1
 theta[0] <= 1
 theta[0] <= 1
 theta[0] <= 1
 theta[0] <= 1
 theta[0] <= 1
 theta[0] <= 1
 theta[0] <= 1
 theta[0] <= 1
 theta[0] <= 1
 theta[0] <= 1
 theta[0] <= 1
 theta[0] <= 1
 theta[0] <= 1
 theta[0] <= 1
 theta[0] <= 1
 theta[0] <= 1
 theta[0] <= 1
 theta[0] <= 1
 theta[0] <= 1
 theta[0] <= 1
 theta[0] <= 1
 theta[0] <= 1
 theta[0] <= 1
 theta[0] <= 1
 theta[0] <= 1
 theta[0] <= 1
 theta[0] <= 1
 theta[0] <= 1
 theta[0] <= 1
 theta[0] <= 1
 theta[0] <= 1
 theta[0] <= 1
 theta[0] <= 1
 theta[0] <= 1
 theta[0] <= 1
 theta[0] <= 1
 theta[0] <= 1
 theta[0] <= 1
 theta[0] <= 1
 theta[0] <= 1
 theta[0] <= 1
 theta[0] <= 1
 theta[0] <= 1
 theta[0] <= 1
 theta[0] <= 1
 theta[0] <= 1
 theta[0] <= 1
 theta[0] <= 1
 theta[0] <= 1
 theta[0] <= 1
 theta[0] <= 1
 theta[0] <= 1
 theta[0] <= 1
 theta[0] <= 1
 theta[0] <= 1
 theta[0] <= 1
 theta[0] <= 1
 theta[0] <= 1
 theta[0] <= 1
 theta[0] <= 1
 theta[0] <= 1
 theta[0] <= 1
 theta[0] <= 1
 theta[0] <= 1
 theta[0] <= 1
 theta[0] <= 1
 theta[0] <= 1
 theta[0] <= 1
 theta[0] <= 1
 theta[0] <= 1
 theta[0] <= 1
 theta[0] <= 1
 theta[0] <= 1
 theta[0] <= 1
 theta[0] <= 1
 theta[0] <= 1
 theta[0] <= 1
 theta[0] <= 1
 theta[0] <= 1
 theta[0] <= 1
 theta[0] <= 1
 theta[0] <= 1
 theta[0] <= 1
 theta[0] <= 1
 theta[0] <= 1
 theta[0] <= 1
 theta[0] <= 1
 theta[0] <= 1
 theta[0] <= 1
 theta[0] <= 1
 theta[0] <= 1
 theta[0] <= 1
 theta[0] <= 1
 theta[0] <= 1
 theta[0] <= 1
 theta[0] <= 1
 theta[0] <= 1
 theta[0] <= 1
 theta[0] <= 1
 theta[0] <= 1
 theta[0] <= 1
 theta[0] <= 1
 theta[0] <= 1
 theta[0] <= 1
 theta[0] <= 1
 theta[0] <= 1
 theta[0] <= 1
 theta[0] <= 1
 theta[0] <= 1
 theta[0] <= 1
 theta[0] <= 1
 theta[0] <= 1
 theta[0] <= 1
 theta[0] <= 1
 theta[0] <= 1
 theta[0] <= 1
 theta[0] <= 1
 theta[0] <= 1
 theta[0] <= 1
 theta[0] <= 1
 theta[0] <= 1
 theta[0] <= 1
 theta[0] <= 1
 theta[0] <= 1
 theta[0] <= 1
 theta[0] <= 1
 theta[0] <= 1
 theta[0] <= 1
 theta[0] <= 1
 theta[0] <= 1
 theta[0] <= 1
 theta[0] <= 1
 theta[0] <= 1
 theta[0] <= 1
 theta[0] <= 1
 theta[0] <= 1
 theta[0] <= 1
 theta[0] <= 1
 theta[0] <= 1
 theta[0] <= 1
 theta[0] <= 1
 theta[0] <= 1
 theta[0] <= 1
 theta[0] <= 1
 Constant = 1
Binaries
 x[0] x[1] x[2] x[3] x[4] x[5] x[6] x[7] x[8] x[9] x[10] x[11] x[12] x[13]
 x[14] x[15] x[16] x[17] x[18] x[19] x[20] x[21] x[22] x[23] x[24] x[25]
 x[26] x[27] x[28] x[29] x[30] x[31] x[32] x[0] x[1] x[2] x[3] x[4] x[5]
 x[6] x[7] x[8] x[9] x[10] x[11] x[12] x[13] x[14] x[15] x[16] x[17] x[18]
 x[19] x[20] x[21] x[0] x[1] x[2] x[3] x[4] x[5] x[6] x[7] x[8] x[9] x[10]
 x[11] x[12] x[13] x[14] x[15] x[16] x[17] x[18] x[19] x[20] x[21] x[0]
 x[1] x[2] x[3] x[4] x[5] x[6] x[7] x[8] x[9] x[10] x[11] x[12] x[13] x[14]
 x[15] x[16] x[17] x[18] x[19] x[20] x[21] x[22] x[23] x[24] x[25] x[26]
 x[27] x[28] x[29] x[30] x[0] x[1] x[2] x[3] x[4] x[5] x[6] x[7] x[8] x[9]
 x[10] x[11] x[12] x[13] x[14] x[15] x[16] x[17] x[18] x[19] x[20] x[21]
 x[0] x[1] x[2] x[3] x[4] x[5] x[6] x[7] x[8] x[9] x[10] x[11] x[12] x[13]
 x[14] x[15] x[16] x[17] x[18] x[19] x[20] x[21] x[22] x[23] x[24] x[25]
 x[26] x[27] x[28] x[29] x[30] x[31] x[0] x[1] x[2] x[3] x[4] x[5] x[6]
 x[7] x[8] x[9] x[10] x[11] x[12] x[13] x[14] x[15] x[16] x[17] x[18] x[19]
 x[20] x[21] x[0] x[1] x[2] x[3] x[4] x[5] x[6] x[7] x[8] x[9] x[10] x[11]
 x[12] x[13] x[14] x[15] x[16] x[17] x[18] x[19] x[20] x[21] x[0] x[1] x[2]
 x[3] x[4] x[5] x[6] x[7] x[8] x[9] x[10] x[11] x[12] x[13] x[14] x[15]
 x[16] x[17] x[18] x[19] x[20] x[21] x[22] x[23] x[24] x[25] x[26] x[27]
 x[28] x[29] x[30] x[31] x[32] x[0] x[1] x[2] x[3] x[4] x[5] x[6] x[7] x[8]
 x[9] x[10] x[11] x[12] x[13] x[14] x[15] x[16] x[17] x[18] x[19] x[20]
 x[21] x[22] x[23] x[24] x[25] x[26] x[27] x[28] x[29] x[30] x[31] y y y y
 y y y y y y
End
